<?xml version = "1.0" standalone="yes"?>
<!-- This file has been generated by DOcplex version 2.23.222  -->
<CPLEXSolution version="1.0">
 <header
   problemName="CVRP"
   objectiveValue="16610.6"
  />
 <variables>
  <variable name="x_0_1" index="0" value="1.00000"/>
  <variable name="x_0_2" index="1" value="1.00000"/>
  <variable name="x_0_3" index="2" value="1.00000"/>
  <variable name="x_0_5" index="4" value="1.00000"/>
  <variable name="x_0_6" index="5" value="1.00000"/>
  <variable name="x_0_8" index="7" value="1.00000"/>
  <variable name="x_0_10" index="9" value="1.00000"/>
  <variable name="x_0_11" index="10" value="1.00000"/>
  <variable name="x_0_12" index="11" value="1.00000"/>
  <variable name="x_0_13" index="12" value="1.00000"/>
  <variable name="x_0_15" index="14" value="1.00000"/>
  <variable name="x_0_17" index="16" value="1.00000"/>
  <variable name="x_0_18" index="17" value="1.00000"/>
  <variable name="x_0_19" index="18" value="1.00000"/>
  <variable name="x_0_20" index="19" value="1.00000"/>
  <variable name="x_0_23" index="22" value="1.00000"/>
  <variable name="x_0_26" index="25" value="1.00000"/>
  <variable name="x_0_29" index="28" value="1.00000"/>
  <variable name="x_0_30" index="29" value="1.00000"/>
  <variable name="x_1_0" index="30" value="1.00000"/>
  <variable name="x_2_0" index="60" value="1.00000"/>
  <variable name="x_3_22" index="111" value="1.00000"/>
  <variable name="x_4_21" index="140" value="1.00000"/>
  <variable name="x_5_0" index="150" value="1.00000"/>
  <variable name="x_6_4" index="184" value="1.00000"/>
  <variable name="x_7_0" index="210" value="1.00000"/>
  <variable name="x_8_0" index="240" value="1.00000"/>
  <variable name="x_9_0" index="270" value="1.00000"/>
  <variable name="x_10_0" index="300" value="1.00000"/>
  <variable name="x_11_16" index="345" value="1.00000"/>
  <variable name="x_12_28" index="387" value="1.00000"/>
  <variable name="x_13_0" index="390" value="1.00000"/>
  <variable name="x_14_0" index="420" value="1.00000"/>
  <variable name="x_15_27" index="476" value="1.00000"/>
  <variable name="x_16_0" index="480" value="1.00000"/>
  <variable name="x_17_25" index="534" value="1.00000"/>
  <variable name="x_18_0" index="540" value="1.00000"/>
  <variable name="x_19_0" index="570" value="1.00000"/>
  <variable name="x_20_0" index="600" value="1.00000"/>
  <variable name="x_21_0" index="630" value="1.00000"/>
  <variable name="x_22_0" index="660" value="1.00000"/>
  <variable name="x_23_24" index="713" value="1.00000"/>
  <variable name="x_24_0" index="720" value="1.00000"/>
  <variable name="x_25_0" index="750" value="1.00000"/>
  <variable name="x_26_0" index="780" value="1.00000"/>
  <variable name="x_27_14" index="824" value="1.00000"/>
  <variable name="x_28_0" index="840" value="1.00000"/>
  <variable name="x_29_9" index="879" value="1.00000"/>
  <variable name="x_30_7" index="907" value="1.00000"/>
  <variable name="u_1" index="930" value="28.00000"/>
  <variable name="u_2" index="931" value="42.00000"/>
  <variable name="u_3" index="932" value="1.00000"/>
  <variable name="u_4" index="933" value="50.00000"/>
  <variable name="u_5" index="934" value="53.00000"/>
  <variable name="u_6" index="935" value="49.00000"/>
  <variable name="u_7" index="936" value="53.00000"/>
  <variable name="u_8" index="937" value="47.00000"/>
  <variable name="u_9" index="938" value="47.00000"/>
  <variable name="u_10" index="939" value="53.00000"/>
  <variable name="u_11" index="940" value="7.00000"/>
  <variable name="u_12" index="941" value="4.00000"/>
  <variable name="u_13" index="942" value="53.00000"/>
  <variable name="u_14" index="943" value="53.00000"/>
  <variable name="u_15" index="944" value="26.00000"/>
  <variable name="u_16" index="945" value="50.00000"/>
  <variable name="u_17" index="946" value="29.00000"/>
  <variable name="u_18" index="947" value="39.00000"/>
  <variable name="u_19" index="948" value="53.00000"/>
  <variable name="u_20" index="949" value="53.00000"/>
  <variable name="u_21" index="950" value="51.00000"/>
  <variable name="u_22" index="951" value="33.00000"/>
  <variable name="u_23" index="952" value="31.00000"/>
  <variable name="u_24" index="953" value="53.00000"/>
  <variable name="u_25" index="954" value="50.00000"/>
  <variable name="u_26" index="955" value="50.00000"/>
  <variable name="u_27" index="956" value="28.00000"/>
  <variable name="u_28" index="957" value="53.00000"/>
  <variable name="u_29" index="958" value="26.00000"/>
  <variable name="u_30" index="959" value="41.00000"/>
 </variables>
</CPLEXSolution>
